

******************************************************************************
This program contains Ipopt, a library for large-scale nonlinear optimization.
 Ipopt is released as open source code under the Eclipse Public License (EPL).
         For more information visit https://github.com/coin-or/Ipopt
******************************************************************************

This is Ipopt version 3.14.11, running with linear solver MUMPS 5.5.1.

Number of nonzeros in equality constraint Jacobian...:       10
Number of nonzeros in inequality constraint Jacobian.:        0
Number of nonzeros in Lagrangian Hessian.............:        9

Total number of variables............................:        7
                     variables with only lower bounds:        0
                variables with lower and upper bounds:        0
                     variables with only upper bounds:        0
Total number of equality constraints.................:        2
Total number of inequality constraints...............:        0
        inequality constraints with only lower bounds:        0
   inequality constraints with lower and upper bounds:        0
        inequality constraints with only upper bounds:        0

iter    objective    inf_pr   inf_du lg(mu)  ||d||  lg(rg) alpha_du alpha_pr  ls
   0  7.1400000e+02 1.30e+01 1.45e+01  -1.0 0.00e+00    -  0.00e+00 0.00e+00   0
   1  6.9900421e+02 6.92e-01 2.62e+01  -1.0 2.55e-01   2.0 1.00e+00 1.00e+00f  1
   2  6.8011182e+02 5.50e+00 1.08e+01  -1.0 1.13e+00   1.5 1.00e+00 1.00e+00f  1
   3  1.6754884e+07 5.86e+00 9.22e+06  -1.0 1.07e+01    -  1.00e+00 1.00e+00h  1
   4  4.3926699e+06 4.95e-01 3.02e+06  -1.0 2.18e+00    -  1.00e+00 1.00e+00f  1
   5  1.1519944e+06 1.53e-01 9.90e+05  -1.0 1.74e+00    -  1.00e+00 1.00e+00f  1
   6  3.0247482e+05 9.83e-02 3.25e+05  -1.0 1.39e+00    -  1.00e+00 1.00e+00f  1
   7  7.9781790e+04 6.47e-02 1.06e+05  -1.0 1.12e+00    -  1.00e+00 1.00e+00f  1
   8  2.1406953e+04 4.26e-02 3.48e+04  -1.0 8.93e-01    -  1.00e+00 1.00e+00f  1
   9  6.1066219e+03 2.79e-02 1.14e+04  -1.0 7.14e-01    -  1.00e+00 1.00e+00f  1
iter    objective    inf_pr   inf_du lg(mu)  ||d||  lg(rg) alpha_du alpha_pr  ls
  10  2.0975836e+03 1.82e-02 3.74e+03  -1.0 5.71e-01    -  1.00e+00 1.00e+00f  1
  11  1.0481349e+03 1.18e-02 1.22e+03  -1.0 4.57e-01    -  1.00e+00 1.00e+00f  1
  12  7.7423270e+02 7.60e-03 4.00e+02  -1.0 3.64e-01    -  1.00e+00 1.00e+00f  1
  13  7.0339171e+02 4.84e-03 1.29e+02  -1.0 2.89e-01    -  1.00e+00 1.00e+00f  1
  14  6.8557072e+02 2.97e-03 4.10e+01  -1.0 2.25e-01    -  1.00e+00 1.00e+00f  1
  15  6.8144746e+02 1.64e-03 1.21e+01  -1.0 1.67e-01    -  1.00e+00 1.00e+00f  1
  16  6.8070068e+02 6.70e-04 2.86e+00  -1.0 1.06e-01    -  1.00e+00 1.00e+00f  1
  17  6.8063126e+02 1.21e-04 3.56e-01  -1.0 4.52e-02    -  1.00e+00 1.00e+00f  1
  18  6.8063005e+02 3.26e-06 8.21e-03  -1.7 7.40e-03    -  1.00e+00 1.00e+00h  1
  19  6.8063006e+02 1.90e-09 4.68e-06  -3.8 1.79e-04    -  1.00e+00 1.00e+00h  1
iter    objective    inf_pr   inf_du lg(mu)  ||d||  lg(rg) alpha_du alpha_pr  ls
  20  6.8063006e+02 2.84e-14 1.52e-12  -8.6 1.02e-07    -  1.00e+00 1.00e+00h  1

Number of Iterations....: 20

                                   (scaled)                 (unscaled)
Objective...............:   6.8063005737440221e+02    6.8063005737440221e+02
Dual infeasibility......:   1.5241141682054149e-12    1.5241141682054149e-12
Constraint violation....:   2.8421709430404007e-14    2.8421709430404007e-14
Variable bound violation:   0.0000000000000000e+00    0.0000000000000000e+00
Complementarity.........:   0.0000000000000000e+00    0.0000000000000000e+00
Overall NLP error.......:   1.5241141682054149e-12    1.5241141682054149e-12


Number of objective function evaluations             = 21
Number of objective gradient evaluations             = 21
Number of equality constraint evaluations            = 21
Number of inequality constraint evaluations          = 0
Number of equality constraint Jacobian evaluations   = 21
Number of inequality constraint Jacobian evaluations = 0
Number of Lagrangian Hessian evaluations             = 20
Total seconds in IPOPT                               = 0.012

EXIT: Optimal Solution Found.
 
Ipopt 3.14.11: Optimal Solution Found
